(set-info :status sat)
(declare-const symbol_577 (_ BitVec 32))
(declare-const symbol_381 (_ BitVec 32))
(declare-const symbol_393 (_ BitVec 32))
(declare-const symbol_438 (_ BitVec 32))
(declare-const symbol_510 (_ BitVec 32))
(declare-const symbol_472 (_ BitVec 32))
(declare-const symbol_222 (_ BitVec 32))
(declare-const symbol_568 (_ BitVec 32))
(declare-const symbol_562 (_ BitVec 32))
(declare-const symbol_197 (_ BitVec 32))
(declare-const symbol_125 (_ BitVec 32))
(declare-const symbol_366 (_ BitVec 32))
(declare-const symbol_541 (_ BitVec 32))
(declare-const symbol_458 (_ BitVec 32))
(declare-const symbol_454 (_ BitVec 32))
(declare-const symbol_338 (_ BitVec 32))
(declare-const symbol_156 (_ BitVec 32))
(declare-const symbol_91 (_ BitVec 32))
(declare-const symbol_388 (_ BitVec 32))
(declare-const symbol_296 (_ BitVec 32))
(declare-const symbol_193 (_ BitVec 32))
(declare-const symbol_257 (_ BitVec 32))
(declare-const symbol_224 (_ BitVec 32))
(declare-const symbol_178 (_ BitVec 32))
(declare-const symbol_54 (_ BitVec 32))
(declare-const symbol_652 (_ BitVec 32))
(declare-const symbol_167 (_ BitVec 32))
(declare-const symbol_131 (_ BitVec 32))
(declare-const symbol_289 (_ BitVec 32))
(declare-const symbol_171 (_ BitVec 32))
(declare-const symbol_26 (_ BitVec 32))
(declare-const symbol_662 (_ BitVec 32))
(declare-const symbol_241 (_ BitVec 32))
(declare-const symbol_623 (_ BitVec 32))
(declare-const symbol_621 (_ BitVec 32))
(declare-const symbol_593 (_ BitVec 32))
(declare-const symbol_104 (_ BitVec 32))
(declare-const symbol_656 (_ BitVec 32))
(declare-const symbol_485 (_ BitVec 32))
(declare-const symbol_560 (_ BitVec 32))
(declare-const symbol_96 (_ BitVec 32))
(declare-const symbol_377 (_ BitVec 32))
(declare-const symbol_255 (_ BitVec 32))
(declare-const symbol_52 (_ BitVec 32))
(declare-const symbol_16 (_ BitVec 32))
(declare-const symbol_95 (_ BitVec 32))
(declare-const symbol_608 (_ BitVec 32))
(declare-const symbol_448 (_ BitVec 32))
(declare-const symbol_428 (_ BitVec 32))
(declare-const symbol_24 (_ BitVec 32))
(declare-const symbol_370 (_ BitVec 32))
(declare-const symbol_264 (_ BitVec 32))
(declare-const symbol_682 (_ BitVec 32))
(declare-const symbol_441 (_ BitVec 32))
(declare-const symbol_67 (_ BitVec 32))
(declare-const symbol_357 (_ BitVec 32))
(declare-const symbol_176 (_ BitVec 32))
(declare-const symbol_481 (_ BitVec 32))
(declare-const symbol_399 (_ BitVec 32))
(declare-const symbol_234 (_ BitVec 32))
(declare-const symbol_470 (_ BitVec 32))
(declare-const symbol_566 (_ BitVec 32))
(declare-const symbol_493 (_ BitVec 32))
(declare-const symbol_474 (_ BitVec 32))
(declare-const symbol_278 (_ BitVec 32))
(declare-const symbol_180 (_ BitVec 32))
(declare-const symbol_136 (_ BitVec 32))
(declare-const symbol_316 (_ BitVec 32))
(declare-const symbol_299 (_ BitVec 32))
(declare-const symbol_2 (_ BitVec 32))
(declare-const symbol_326 (_ BitVec 32))
(declare-const symbol_585 (_ BitVec 32))
(declare-const symbol_199 (_ BitVec 32))
(declare-const symbol_20 (_ BitVec 32))
(declare-const symbol_641 (_ BitVec 32))
(declare-const symbol_688 (_ BitVec 32))
(declare-const symbol_543 (_ BitVec 32))
(declare-const symbol_340 (_ BitVec 32))
(declare-const symbol_602 (_ BitVec 32))
(declare-const symbol_477 (_ BitVec 32))
(declare-const symbol_504 (_ BitVec 32))
(declare-const symbol_12 (_ BitVec 32))
(declare-const symbol_395 (_ BitVec 32))
(declare-const symbol_273 (_ BitVec 32))
(declare-const symbol_215 (_ BitVec 32))
(declare-const symbol_76 (_ BitVec 32))
(declare-const symbol_70 (_ BitVec 32))
(declare-const symbol_5 (_ BitVec 32))
(declare-const symbol_309 (_ BitVec 32))
(declare-const symbol_506 (_ BitVec 32))
(declare-const symbol_203 (_ BitVec 32))
(declare-const symbol_545 (_ BitVec 32))
(declare-const symbol_353 (_ BitVec 32))
(declare-const symbol_55 (_ BitVec 32))
(declare-const symbol_462 (_ BitVec 32))
(declare-const symbol_321 (_ BitVec 32))
(declare-const symbol_162 (_ BitVec 32))
(declare-const symbol_597 (_ BitVec 32))
(declare-const symbol_361 (_ BitVec 32))
(declare-const symbol_347 (_ BitVec 32))
(declare-const symbol_692 (_ BitVec 32))
(declare-const symbol_160 (_ BitVec 32))
(declare-const symbol_134 (_ BitVec 32))
(declare-const symbol_579 (_ BitVec 32))
(declare-const symbol_616 (_ BitVec 32))
(declare-const symbol_410 (_ BitVec 32))
(declare-const symbol_372 (_ BitVec 32))
(declare-const symbol_109 (_ BitVec 32))
(declare-const symbol_557 (_ BitVec 32))
(declare-const symbol_314 (_ BitVec 32))
(declare-const symbol_349 (_ BitVec 32))
(declare-const symbol_319 (_ BitVec 32))
(declare-const symbol_49 (_ BitVec 32))
(declare-const symbol_632 (_ BitVec 32))
(declare-const symbol_468 (_ BitVec 32))
(declare-const symbol_141 (_ BitVec 32))
(declare-const symbol_539 (_ BitVec 32))
(declare-const symbol_499 (_ BitVec 32))
(declare-const symbol_116 (_ BitVec 32))
(declare-const symbol_85 (_ BitVec 32))
(declare-const symbol_700 (_ BitVec 32))
(declare-const symbol_514 (_ BitVec 32))
(declare-const symbol_436 (_ BitVec 32))
(declare-const symbol_345 (_ BitVec 32))
(declare-const symbol_4 (_ BitVec 32))
(declare-const symbol_524 (_ BitVec 32))
(declare-const symbol_310 (_ BitVec 32))
(declare-const symbol_237 (_ BitVec 32))
(declare-const symbol_530 (_ BitVec 32))
(declare-const symbol_291 (_ BitVec 32))
(declare-const symbol_139 (_ BitVec 32))
(declare-const symbol_9 (_ BitVec 32))
(declare-const symbol_599 (_ BitVec 32))
(declare-const symbol_583 (_ BitVec 32))
(declare-const symbol_368 (_ BitVec 32))
(declare-const symbol_230 (_ BitVec 32))
(declare-const symbol_259 (_ BitVec 32))
(declare-const symbol_192 (_ BitVec 32))
(declare-const symbol_285 (_ BitVec 32))
(declare-const symbol_427 (_ BitVec 32))
(declare-const symbol_61 (_ BitVec 32))
(declare-const symbol_636 (_ BitVec 32))
(declare-const symbol_423 (_ BitVec 32))
(declare-const symbol_280 (_ BitVec 32))
(declare-const symbol_100 (_ BitVec 32))
(declare-const symbol_57 (_ BitVec 32))
(declare-const symbol_127 (_ BitVec 32))
(declare-const symbol_72 (_ BitVec 32))
(declare-const symbol_665 (_ BitVec 32))
(declare-const symbol_450 (_ BitVec 32))
(declare-const symbol_591 (_ BitVec 32))
(declare-const symbol_390 (_ BitVec 32))
(declare-const symbol_359 (_ BitVec 32))
(declare-const symbol_147 (_ BitVec 32))
(declare-const symbol_266 (_ BitVec 32))
(declare-const symbol_111 (_ BitVec 32))
(declare-const symbol_120 (_ BitVec 32))
(declare-const symbol_307 (_ BitVec 32))
(declare-const symbol_174 (_ BitVec 32))
(declare-const symbol_684 (_ BitVec 32))
(declare-const symbol_612 (_ BitVec 32))
(declare-const symbol_551 (_ BitVec 32))
(declare-const symbol_89 (_ BitVec 32))
(declare-const symbol_606 (_ BitVec 32))
(declare-const symbol_575 (_ BitVec 32))
(declare-const symbol_124 (_ BitVec 32))
(declare-const symbol_694 (_ BitVec 32))
(declare-const symbol_676 (_ BitVec 32))
(declare-const symbol_643 (_ BitVec 32))
(declare-const symbol_675 (_ BitVec 32))
(declare-const symbol_649 (_ BitVec 32))
(declare-const symbol_268 (_ BitVec 32))
(declare-const symbol_195 (_ BitVec 32))
(declare-const symbol_129 (_ BitVec 32))
(declare-const symbol_114 (_ BitVec 32))
(declare-const symbol_637 (_ BitVec 32))
(declare-const symbol_386 (_ BitVec 32))
(declare-const symbol_201 (_ BitVec 32))
(declare-const symbol_569 (_ BitVec 32))
(declare-const symbol_406 (_ BitVec 32))
(declare-const symbol_317 (_ BitVec 32))
(declare-const symbol_312 (_ BitVec 32))
(declare-const symbol_536 (_ BitVec 32))
(declare-const symbol_483 (_ BitVec 32))
(declare-const symbol_476 (_ BitVec 32))
(declare-const symbol_466 (_ BitVec 32))
(declare-const symbol_419 (_ BitVec 32))
(declare-const symbol_460 (_ BitVec 32))
(declare-const symbol_226 (_ BitVec 32))
(declare-const symbol_78 (_ BitVec 32))
(declare-const symbol_650 (_ BitVec 32))
(declare-const symbol_619 (_ BitVec 32))
(declare-const symbol_614 (_ BitVec 32))
(declare-const symbol_456 (_ BitVec 32))
(declare-const symbol_271 (_ BitVec 32))
(declare-const symbol_401 (_ BitVec 32))
(declare-const symbol_17 (_ BitVec 32))
(declare-const symbol_447 (_ BitVec 32))
(declare-const symbol_432 (_ BitVec 32))
(declare-const symbol_625 (_ BitVec 32))
(declare-const symbol_549 (_ BitVec 32))
(declare-const symbol_425 (_ BitVec 32))
(declare-const symbol_553 (_ BitVec 32))
(declare-const symbol_634 (_ BitVec 32))
(declare-const symbol_610 (_ BitVec 32))
(declare-const symbol_137 (_ BitVec 32))
(declare-const symbol_491 (_ BitVec 32))
(declare-const symbol_382 (_ BitVec 32))
(declare-const symbol_102 (_ BitVec 32))
(declare-const symbol_421 (_ BitVec 32))
(declare-const symbol_205 (_ BitVec 32))
(declare-const symbol_301 (_ BitVec 32))
(declare-const symbol_284 (_ BitVec 32))
(declare-const symbol_28 (_ BitVec 32))
(declare-const symbol_696 (_ BitVec 32))
(declare-const symbol_647 (_ BitVec 32))
(declare-const symbol_628 (_ BitVec 32))
(declare-const symbol_158 (_ BitVec 32))
(declare-const symbol_664 (_ BitVec 32))
(declare-const symbol_443 (_ BitVec 32))
(declare-const symbol_323 (_ BitVec 32))
(declare-const symbol_184 (_ BitVec 32))
(declare-const symbol_489 (_ BitVec 32))
(declare-const symbol_698 (_ BitVec 32))
(declare-const symbol_564 (_ BitVec 32))
(declare-const symbol_528 (_ BitVec 32))
(declare-const symbol_660 (_ BitVec 32))
(declare-const symbol_47 (_ BitVec 32))
(declare-const symbol_365 (_ BitVec 32))
(declare-const symbol_14 (_ BitVec 32))
(declare-const symbol_408 (_ BitVec 32))
(declare-const symbol_221 (_ BitVec 32))
(declare-const symbol_74 (_ BitVec 32))
(declare-const symbol_22 (_ BitVec 32))
(declare-const symbol_517 (_ BitVec 32))
(declare-const symbol_439 (_ BitVec 32))
(declare-const symbol_219 (_ BitVec 32))
(declare-const symbol_604 (_ BitVec 32))
(declare-const symbol_228 (_ BitVec 32))
(declare-const symbol_80 (_ BitVec 32))
(declare-const symbol_673 (_ BitVec 32))
(declare-const symbol_336 (_ BitVec 32))
(declare-const symbol_328 (_ BitVec 32))
(declare-const symbol_297 (_ BitVec 32))
(declare-const symbol_589 (_ BitVec 32))
(declare-const symbol_287 (_ BitVec 32))
(declare-const symbol_244 (_ BitVec 32))
(declare-const symbol_344 (_ BitVec 32))
(declare-const symbol_30 (_ BitVec 32))
(declare-const symbol_654 (_ BitVec 32))
(declare-const symbol_526 (_ BitVec 32))
(declare-const symbol_19 (_ BitVec 32))
(declare-const symbol_639 (_ BitVec 32))
(declare-const symbol_43 (_ BitVec 32))
(declare-const symbol_93 (_ BitVec 32))
(declare-const symbol_416 (_ BitVec 32))
(declare-const symbol_342 (_ BitVec 32))
(declare-const symbol_151 (_ BitVec 32))
(declare-const symbol_98 (_ BitVec 32))
(declare-const symbol_617 (_ BitVec 32))
(declare-const symbol_404 (_ BitVec 32))
(declare-const symbol_239 (_ BitVec 32))
(declare-const symbol_7 (_ BitVec 32))
(declare-const symbol_645 (_ BitVec 32))
(declare-const symbol_601 (_ BitVec 32))
(declare-const symbol_587 (_ BitVec 32))
(declare-const symbol_242 (_ BitVec 32))
(declare-const symbol_667 (_ BitVec 32))
(declare-const symbol_39 (_ BitVec 32))
(declare-const symbol_678 (_ BitVec 32))
(declare-const symbol_595 (_ BitVec 32))
(declare-const symbol_515 (_ BitVec 32))
(declare-const symbol_261 (_ BitVec 32))
(declare-const symbol_571 (_ BitVec 32))
(declare-const symbol_434 (_ BitVec 32))
(declare-const symbol_379 (_ BitVec 32))
(declare-const symbol_32 (_ BitVec 32))
(declare-const symbol_232 (_ BitVec 32))
(declare-const symbol_155 (_ BitVec 32))
(declare-const symbol_68 (_ BitVec 32))
(declare-const symbol_305 (_ BitVec 32))
(declare-const symbol_512 (_ BitVec 32))
(declare-const symbol_163 (_ BitVec 32))
(declare-const symbol_523 (_ BitVec 32))
(declare-const symbol_330 (_ BitVec 32))
(declare-const symbol_294 (_ BitVec 32))
(declare-const symbol_303 (_ BitVec 32))
(declare-const symbol_118 (_ BitVec 32))
(declare-const symbol_559 (_ BitVec 32))
(declare-const symbol_153 (_ BitVec 32))
(declare-const symbol_149 (_ BitVec 32))
(declare-const symbol_414 (_ BitVec 32))
(declare-const symbol_252 (_ BitVec 32))
(declare-const symbol_209 (_ BitVec 32))
(declare-const symbol_45 (_ BitVec 32))
(declare-const symbol_132 (_ BitVec 32))
(declare-const symbol_113 (_ BitVec 32))
(declare-const symbol_384 (_ BitVec 32))
(declare-const symbol_334 (_ BitVec 32))
(declare-const symbol_182 (_ BitVec 32))
(declare-const symbol_253 (_ BitVec 32))
(declare-const symbol_63 (_ BitVec 32))
(declare-const symbol_573 (_ BitVec 32))
(declare-const symbol_374 (_ BitVec 32))
(declare-const symbol_658 (_ BitVec 32))
(declare-const symbol_172 (_ BitVec 32))
(declare-const symbol_143 (_ BitVec 32))
(declare-const symbol_10 (_ BitVec 32))
(declare-const symbol_532 (_ BitVec 32))
(declare-const symbol_249 (_ BitVec 32))
(declare-const symbol_0 (_ BitVec 32))
(declare-const symbol_487 (_ BitVec 32))
(declare-const symbol_392 (_ BitVec 32))
(declare-const symbol_452 (_ BitVec 32))
(declare-const symbol_82 (_ BitVec 32))
(declare-const symbol_521 (_ BitVec 32))
(declare-const symbol_626 (_ BitVec 32))
(declare-const symbol_188 (_ BitVec 32))
(declare-const symbol_65 (_ BitVec 32))
(declare-const symbol_36 (_ BitVec 32))
(declare-const symbol_501 (_ BitVec 32))
(declare-const symbol_248 (_ BitVec 32))
(declare-const symbol_270 (_ BitVec 32))
(declare-const symbol_34 (_ BitVec 32))
(declare-const symbol_581 (_ BitVec 32))
(declare-const symbol_479 (_ BitVec 32))
(declare-const symbol_464 (_ BitVec 32))
(declare-const symbol_325 (_ BitVec 32))
(declare-const symbol_262 (_ BitVec 32))
(declare-const symbol_236 (_ BitVec 32))
(declare-const symbol_105 (_ BitVec 32))
(declare-const symbol_282 (_ BitVec 32))
(declare-const symbol_207 (_ BitVec 32))
(declare-const symbol_41 (_ BitVec 32))
(declare-const symbol_83 (_ BitVec 32))
(declare-const symbol_508 (_ BitVec 32))
(declare-const symbol_686 (_ BitVec 32))
(declare-const symbol_122 (_ BitVec 32))
(declare-const symbol_497 (_ BitVec 32))
(declare-const symbol_690 (_ BitVec 32))
(declare-const symbol_537 (_ BitVec 32))
(declare-const symbol_555 (_ BitVec 32))
(declare-const symbol_430 (_ BitVec 32))
(declare-const symbol_363 (_ BitVec 32))
(declare-const symbol_211 (_ BitVec 32))
(declare-const symbol_445 (_ BitVec 32))
(declare-const symbol_402 (_ BitVec 32))
(declare-const symbol_275 (_ BitVec 32))
(declare-const symbol_246 (_ BitVec 32))
(declare-const symbol_169 (_ BitVec 32))
(declare-const symbol_37 (_ BitVec 32))
(declare-const symbol_534 (_ BitVec 32))
(declare-const symbol_397 (_ BitVec 32))
(declare-const symbol_190 (_ BitVec 32))
(declare-const symbol_495 (_ BitVec 32))
(declare-const symbol_412 (_ BitVec 32))
(declare-const symbol_107 (_ BitVec 32))
(declare-const symbol_502 (_ BitVec 32))
(declare-const symbol_51 (_ BitVec 32))
(declare-const symbol_292 (_ BitVec 32))
(declare-const symbol_217 (_ BitVec 32))
(declare-const symbol_186 (_ BitVec 32))
(declare-const symbol_630 (_ BitVec 32))
(declare-const symbol_669 (_ BitVec 32))
(declare-const symbol_59 (_ BitVec 32))
(declare-const symbol_165 (_ BitVec 32))
(declare-const symbol_680 (_ BitVec 32))
(declare-const symbol_146 (_ BitVec 32))
(declare-const symbol_376 (_ BitVec 32))
(declare-const symbol_332 (_ BitVec 32))
(declare-const symbol_417 (_ BitVec 32))
(declare-const symbol_547 (_ BitVec 32))
(declare-const symbol_87 (_ BitVec 32))
(declare-const symbol_671 (_ BitVec 32))
(declare-const symbol_519 (_ BitVec 32))
(declare-const symbol_355 (_ BitVec 32))
(declare-const symbol_351 (_ BitVec 32))
(declare-const symbol_213 (_ BitVec 32))
(assert (not (= symbol_700 (_ bv5 32))))
(assert (not (not (= symbol_698 (_ bv5 32)))))
(assert (not (not (= symbol_696 (_ bv5 32)))))
(assert (not (not (= symbol_694 (_ bv5 32)))))
(assert (not (not (= symbol_692 (_ bv5 32)))))
(assert (not (not (= symbol_690 (_ bv5 32)))))
(assert (not (not (= symbol_688 (_ bv5 32)))))
(assert (not (not (= symbol_686 (_ bv5 32)))))
(assert (not (not (= symbol_684 (_ bv5 32)))))
(assert (not (not (= symbol_682 (_ bv5 32)))))
(assert (not (not (= symbol_680 (_ bv5 32)))))
(assert (not (not (= symbol_678 (_ bv5 32)))))
(assert (not (not (= symbol_676 (_ bv5 32)))))
(assert (not (not (= symbol_675 (_ bv5 32)))))
(assert (not (not (= symbol_673 (_ bv5 32)))))
(assert (not (not (= symbol_671 (_ bv5 32)))))
(assert (not (not (= symbol_669 (_ bv5 32)))))
(assert (not (not (= symbol_667 (_ bv5 32)))))
(assert (not (not (= symbol_665 (_ bv5 32)))))
(assert (not (not (= symbol_664 (_ bv5 32)))))
(assert (not (not (= symbol_662 (_ bv5 32)))))
(assert (not (not (= symbol_660 (_ bv5 32)))))
(assert (not (not (= symbol_658 (_ bv5 32)))))
(assert (not (not (= symbol_656 (_ bv5 32)))))
(assert (not (not (= symbol_654 (_ bv5 32)))))
(assert (not (not (= symbol_652 (_ bv5 32)))))
(assert (not (not (= symbol_650 (_ bv5 32)))))
(assert (not (not (= symbol_649 (_ bv5 32)))))
(assert (not (not (= symbol_647 (_ bv5 32)))))
(assert (not (not (= symbol_645 (_ bv5 32)))))
(assert (not (not (= symbol_643 (_ bv5 32)))))
(assert (not (not (= symbol_641 (_ bv5 32)))))
(assert (not (not (= symbol_639 (_ bv5 32)))))
(assert (not (not (= symbol_637 (_ bv5 32)))))
(assert (not (not (= symbol_636 (_ bv5 32)))))
(assert (not (not (= symbol_634 (_ bv5 32)))))
(assert (not (not (= symbol_632 (_ bv5 32)))))
(assert (not (not (= symbol_630 (_ bv5 32)))))
(assert (not (not (= symbol_628 (_ bv5 32)))))
(assert (not (not (= symbol_626 (_ bv5 32)))))
(assert (not (not (= symbol_625 (_ bv5 32)))))
(assert (not (not (= symbol_623 (_ bv5 32)))))
(assert (not (not (= symbol_621 (_ bv5 32)))))
(assert (not (not (= symbol_619 (_ bv5 32)))))
(assert (not (not (= symbol_617 (_ bv5 32)))))
(assert (not (not (= symbol_616 (_ bv5 32)))))
(assert (not (not (= symbol_614 (_ bv5 32)))))
(assert (not (not (= symbol_612 (_ bv5 32)))))
(assert (not (not (= symbol_610 (_ bv5 32)))))
(assert (not (not (= symbol_608 (_ bv5 32)))))
(assert (not (not (= symbol_606 (_ bv5 32)))))
(assert (not (not (= symbol_604 (_ bv5 32)))))
(assert (not (not (= symbol_602 (_ bv5 32)))))
(assert (not (not (= symbol_601 (_ bv5 32)))))
(assert (not (not (= symbol_599 (_ bv5 32)))))
(assert (not (not (= symbol_597 (_ bv5 32)))))
(assert (not (not (= symbol_595 (_ bv5 32)))))
(assert (not (not (= symbol_593 (_ bv5 32)))))
(assert (not (not (= symbol_591 (_ bv5 32)))))
(assert (not (not (= symbol_589 (_ bv5 32)))))
(assert (not (not (= symbol_587 (_ bv5 32)))))
(assert (not (not (= symbol_585 (_ bv5 32)))))
(assert (not (not (= symbol_583 (_ bv5 32)))))
(assert (not (not (= symbol_581 (_ bv5 32)))))
(assert (not (not (= symbol_579 (_ bv5 32)))))
(assert (not (not (= symbol_577 (_ bv5 32)))))
(assert (not (not (= symbol_575 (_ bv5 32)))))
(assert (not (not (= symbol_573 (_ bv5 32)))))
(assert (not (not (= symbol_571 (_ bv5 32)))))
(assert (not (not (= symbol_569 (_ bv5 32)))))
(assert (not (not (= symbol_568 (_ bv5 32)))))
(assert (not (not (= symbol_566 (_ bv5 32)))))
(assert (not (not (= symbol_564 (_ bv5 32)))))
(assert (not (not (= symbol_562 (_ bv5 32)))))
(assert (not (not (= symbol_560 (_ bv5 32)))))
(assert (not (not (= symbol_559 (_ bv5 32)))))
(assert (not (not (= symbol_557 (_ bv5 32)))))
(assert (not (not (= symbol_555 (_ bv5 32)))))
(assert (not (not (= symbol_553 (_ bv5 32)))))
(assert (not (not (= symbol_551 (_ bv5 32)))))
(assert (not (not (= symbol_549 (_ bv5 32)))))
(assert (not (not (= symbol_547 (_ bv5 32)))))
(assert (not (not (= symbol_545 (_ bv5 32)))))
(assert (not (not (= symbol_543 (_ bv5 32)))))
(assert (not (not (= symbol_541 (_ bv5 32)))))
(assert (not (not (= symbol_539 (_ bv5 32)))))
(assert (not (not (= symbol_537 (_ bv5 32)))))
(assert (not (not (= symbol_536 (_ bv5 32)))))
(assert (not (not (= symbol_534 (_ bv5 32)))))
(assert (not (not (= symbol_532 (_ bv5 32)))))
(assert (not (not (= symbol_530 (_ bv5 32)))))
(assert (not (not (= symbol_528 (_ bv5 32)))))
(assert (not (not (= symbol_526 (_ bv5 32)))))
(assert (not (not (= symbol_524 (_ bv5 32)))))
(assert (not (not (= symbol_523 (_ bv5 32)))))
(assert (not (not (= symbol_521 (_ bv5 32)))))
(assert (not (not (= symbol_519 (_ bv5 32)))))
(assert (not (not (= symbol_517 (_ bv5 32)))))
(assert (not (not (= symbol_515 (_ bv5 32)))))
(assert (not (not (= symbol_514 (_ bv5 32)))))
(assert (not (not (= symbol_512 (_ bv5 32)))))
(assert (not (not (= symbol_510 (_ bv5 32)))))
(assert (not (not (= symbol_508 (_ bv5 32)))))
(assert (not (not (= symbol_506 (_ bv5 32)))))
(assert (not (not (= symbol_504 (_ bv5 32)))))
(assert (not (not (= symbol_502 (_ bv5 32)))))
(assert (not (not (= symbol_501 (_ bv5 32)))))
(assert (not (not (= symbol_499 (_ bv5 32)))))
(assert (not (not (= symbol_497 (_ bv5 32)))))
(assert (not (not (= symbol_495 (_ bv5 32)))))
(assert (not (not (= symbol_493 (_ bv5 32)))))
(assert (not (not (= symbol_491 (_ bv5 32)))))
(assert (not (not (= symbol_489 (_ bv5 32)))))
(assert (not (not (= symbol_487 (_ bv5 32)))))
(assert (not (not (= symbol_485 (_ bv5 32)))))
(assert (not (not (= symbol_483 (_ bv5 32)))))
(assert (not (not (= symbol_481 (_ bv5 32)))))
(assert (not (not (= symbol_479 (_ bv5 32)))))
(assert (not (not (= symbol_477 (_ bv5 32)))))
(assert (not (not (= symbol_476 (_ bv5 32)))))
(assert (not (not (= symbol_474 (_ bv5 32)))))
(assert (not (not (= symbol_472 (_ bv5 32)))))
(assert (not (not (= symbol_470 (_ bv5 32)))))
(assert (not (not (= symbol_468 (_ bv5 32)))))
(assert (not (not (= symbol_466 (_ bv5 32)))))
(assert (not (not (= symbol_464 (_ bv5 32)))))
(assert (not (not (= symbol_462 (_ bv5 32)))))
(assert (not (not (= symbol_460 (_ bv5 32)))))
(assert (not (not (= symbol_458 (_ bv5 32)))))
(assert (not (not (= symbol_456 (_ bv5 32)))))
(assert (not (not (= symbol_454 (_ bv5 32)))))
(assert (not (not (= symbol_452 (_ bv5 32)))))
(assert (not (not (= symbol_450 (_ bv5 32)))))
(assert (not (not (= symbol_448 (_ bv5 32)))))
(assert (not (not (= symbol_447 (_ bv5 32)))))
(assert (not (not (= symbol_445 (_ bv5 32)))))
(assert (not (not (= symbol_443 (_ bv5 32)))))
(assert (not (not (= symbol_441 (_ bv5 32)))))
(assert (not (not (= symbol_439 (_ bv5 32)))))
(assert (not (not (= symbol_438 (_ bv5 32)))))
(assert (not (not (= symbol_436 (_ bv5 32)))))
(assert (not (not (= symbol_434 (_ bv5 32)))))
(assert (not (not (= symbol_432 (_ bv5 32)))))
(assert (not (not (= symbol_430 (_ bv5 32)))))
(assert (not (not (= symbol_428 (_ bv5 32)))))
(assert (not (not (= symbol_427 (_ bv5 32)))))
(assert (not (not (= symbol_425 (_ bv5 32)))))
(assert (not (not (= symbol_423 (_ bv5 32)))))
(assert (not (not (= symbol_421 (_ bv5 32)))))
(assert (not (not (= symbol_419 (_ bv5 32)))))
(assert (not (not (= symbol_417 (_ bv5 32)))))
(assert (not (not (= symbol_416 (_ bv5 32)))))
(assert (not (not (= symbol_414 (_ bv5 32)))))
(assert (not (not (= symbol_412 (_ bv5 32)))))
(assert (not (not (= symbol_410 (_ bv5 32)))))
(assert (not (not (= symbol_408 (_ bv5 32)))))
(assert (not (not (= symbol_406 (_ bv5 32)))))
(assert (not (not (= symbol_404 (_ bv5 32)))))
(assert (not (not (= symbol_402 (_ bv5 32)))))
(assert (not (not (= symbol_401 (_ bv5 32)))))
(assert (not (not (= symbol_399 (_ bv5 32)))))
(assert (not (not (= symbol_397 (_ bv5 32)))))
(assert (not (not (= symbol_395 (_ bv5 32)))))
(assert (not (not (= symbol_393 (_ bv5 32)))))
(assert (not (not (= symbol_392 (_ bv5 32)))))
(assert (not (not (= symbol_390 (_ bv5 32)))))
(assert (not (not (= symbol_388 (_ bv5 32)))))
(assert (not (not (= symbol_386 (_ bv5 32)))))
(assert (not (not (= symbol_384 (_ bv5 32)))))
(assert (not (not (= symbol_382 (_ bv5 32)))))
(assert (not (not (= symbol_381 (_ bv5 32)))))
(assert (not (not (= symbol_379 (_ bv5 32)))))
(assert (not (not (= symbol_377 (_ bv5 32)))))
(assert (not (not (= symbol_376 (_ bv5 32)))))
(assert (not (not (= symbol_374 (_ bv5 32)))))
(assert (not (not (= symbol_372 (_ bv5 32)))))
(assert (not (not (= symbol_370 (_ bv5 32)))))
(assert (not (not (= symbol_368 (_ bv5 32)))))
(assert (not (not (= symbol_366 (_ bv5 32)))))
(assert (not (not (= symbol_365 (_ bv5 32)))))
(assert (not (not (= symbol_363 (_ bv5 32)))))
(assert (not (not (= symbol_361 (_ bv5 32)))))
(assert (not (not (= symbol_359 (_ bv5 32)))))
(assert (not (not (= symbol_357 (_ bv5 32)))))
(assert (not (not (= symbol_355 (_ bv5 32)))))
(assert (not (not (= symbol_353 (_ bv5 32)))))
(assert (not (not (= symbol_351 (_ bv5 32)))))
(assert (not (not (= symbol_349 (_ bv5 32)))))
(assert (not (not (= symbol_347 (_ bv5 32)))))
(assert (not (not (= symbol_345 (_ bv5 32)))))
(assert (not (not (= symbol_344 (_ bv5 32)))))
(assert (not (not (= symbol_342 (_ bv5 32)))))
(assert (not (not (= symbol_340 (_ bv5 32)))))
(assert (not (not (= symbol_338 (_ bv5 32)))))
(assert (not (not (= symbol_336 (_ bv5 32)))))
(assert (not (not (= symbol_334 (_ bv5 32)))))
(assert (not (not (= symbol_332 (_ bv5 32)))))
(assert (not (not (= symbol_330 (_ bv5 32)))))
(assert (not (not (= symbol_328 (_ bv5 32)))))
(assert (not (not (= symbol_326 (_ bv5 32)))))
(assert (not (not (= symbol_325 (_ bv5 32)))))
(assert (not (not (= symbol_323 (_ bv5 32)))))
(assert (not (not (= symbol_321 (_ bv5 32)))))
(assert (not (not (= symbol_319 (_ bv5 32)))))
(assert (not (not (= symbol_317 (_ bv5 32)))))
(assert (not (not (= symbol_316 (_ bv5 32)))))
(assert (not (not (= symbol_314 (_ bv5 32)))))
(assert (not (not (= symbol_312 (_ bv5 32)))))
(assert (not (not (= symbol_310 (_ bv5 32)))))
(assert (not (not (= symbol_309 (_ bv5 32)))))
(assert (not (not (= symbol_307 (_ bv5 32)))))
(assert (not (not (= symbol_305 (_ bv5 32)))))
(assert (not (not (= symbol_303 (_ bv5 32)))))
(assert (not (not (= symbol_301 (_ bv5 32)))))
(assert (not (not (= symbol_299 (_ bv5 32)))))
(assert (not (not (= symbol_297 (_ bv5 32)))))
(assert (not (not (= symbol_296 (_ bv5 32)))))
(assert (not (not (= symbol_294 (_ bv5 32)))))
(assert (not (not (= symbol_292 (_ bv5 32)))))
(assert (not (not (= symbol_291 (_ bv5 32)))))
(assert (not (not (= symbol_289 (_ bv5 32)))))
(assert (not (not (= symbol_287 (_ bv5 32)))))
(assert (not (not (= symbol_285 (_ bv5 32)))))
(assert (not (not (= symbol_284 (_ bv5 32)))))
(assert (not (not (= symbol_282 (_ bv5 32)))))
(assert (not (not (= symbol_280 (_ bv5 32)))))
(assert (not (not (= symbol_278 (_ bv5 32)))))
(assert (not (not (= symbol_275 (_ bv5 32)))))
(assert (not (not (= symbol_273 (_ bv5 32)))))
(assert (not (not (= symbol_271 (_ bv5 32)))))
(assert (not (not (= symbol_270 (_ bv5 32)))))
(assert (not (not (= symbol_268 (_ bv5 32)))))
(assert (not (not (= symbol_266 (_ bv5 32)))))
(assert (not (not (= symbol_264 (_ bv5 32)))))
(assert (not (not (= symbol_262 (_ bv5 32)))))
(assert (not (not (= symbol_261 (_ bv5 32)))))
(assert (not (not (= symbol_259 (_ bv5 32)))))
(assert (not (not (= symbol_257 (_ bv5 32)))))
(assert (not (not (= symbol_255 (_ bv5 32)))))
(assert (not (not (= symbol_253 (_ bv5 32)))))
(assert (not (not (= symbol_252 (_ bv5 32)))))
(assert (not (not (= symbol_249 (_ bv5 32)))))
(assert (not (not (= symbol_248 (_ bv5 32)))))
(assert (not (not (= symbol_246 (_ bv5 32)))))
(assert (not (not (= symbol_244 (_ bv5 32)))))
(assert (not (not (= symbol_242 (_ bv5 32)))))
(assert (not (not (= symbol_241 (_ bv5 32)))))
(assert (not (not (= symbol_239 (_ bv5 32)))))
(assert (not (not (= symbol_237 (_ bv5 32)))))
(assert (not (not (= symbol_236 (_ bv5 32)))))
(assert (not (not (= symbol_234 (_ bv5 32)))))
(assert (not (not (= symbol_232 (_ bv5 32)))))
(assert (not (not (= symbol_230 (_ bv5 32)))))
(assert (not (not (= symbol_228 (_ bv5 32)))))
(assert (not (not (= symbol_226 (_ bv5 32)))))
(assert (not (not (= symbol_224 (_ bv5 32)))))
(assert (not (not (= symbol_222 (_ bv5 32)))))
(assert (not (not (= symbol_221 (_ bv5 32)))))
(assert (not (not (= symbol_219 (_ bv5 32)))))
(assert (not (not (= symbol_217 (_ bv5 32)))))
(assert (not (not (= symbol_215 (_ bv5 32)))))
(assert (not (not (= symbol_213 (_ bv5 32)))))
(assert (not (not (= symbol_211 (_ bv5 32)))))
(assert (not (not (= symbol_209 (_ bv5 32)))))
(assert (not (not (= symbol_207 (_ bv5 32)))))
(assert (not (not (= symbol_205 (_ bv5 32)))))
(assert (not (not (= symbol_203 (_ bv5 32)))))
(assert (not (not (= symbol_201 (_ bv5 32)))))
(assert (not (not (= symbol_199 (_ bv5 32)))))
(assert (not (not (= symbol_197 (_ bv5 32)))))
(assert (not (not (= symbol_195 (_ bv5 32)))))
(assert (not (not (= symbol_193 (_ bv5 32)))))
(assert (not (not (= symbol_192 (_ bv5 32)))))
(assert (not (not (= symbol_190 (_ bv5 32)))))
(assert (not (not (= symbol_188 (_ bv5 32)))))
(assert (not (not (= symbol_186 (_ bv5 32)))))
(assert (not (not (= symbol_184 (_ bv5 32)))))
(assert (not (not (= symbol_182 (_ bv5 32)))))
(assert (not (not (= symbol_180 (_ bv5 32)))))
(assert (not (not (= symbol_178 (_ bv5 32)))))
(assert (not (not (= symbol_176 (_ bv5 32)))))
(assert (not (not (= symbol_174 (_ bv5 32)))))
(assert (not (not (= symbol_172 (_ bv5 32)))))
(assert (not (not (= symbol_171 (_ bv5 32)))))
(assert (not (not (= symbol_169 (_ bv5 32)))))
(assert (not (not (= symbol_167 (_ bv5 32)))))
(assert (not (not (= symbol_165 (_ bv5 32)))))
(assert (not (not (= symbol_163 (_ bv5 32)))))
(assert (not (not (= symbol_162 (_ bv5 32)))))
(assert (not (not (= symbol_160 (_ bv5 32)))))
(assert (not (not (= symbol_158 (_ bv5 32)))))
(assert (not (not (= symbol_156 (_ bv5 32)))))
(assert (not (not (= symbol_155 (_ bv5 32)))))
(assert (not (not (= symbol_153 (_ bv5 32)))))
(assert (not (not (= symbol_151 (_ bv5 32)))))
(assert (not (not (= symbol_149 (_ bv5 32)))))
(assert (not (not (= symbol_147 (_ bv5 32)))))
(assert (not (not (= symbol_146 (_ bv5 32)))))
(assert (not (not (= symbol_143 (_ bv5 32)))))
(assert (not (not (= symbol_141 (_ bv5 32)))))
(assert (not (not (= symbol_139 (_ bv5 32)))))
(assert (not (not (= symbol_137 (_ bv5 32)))))
(assert (not (not (= symbol_136 (_ bv5 32)))))
(assert (not (not (= symbol_134 (_ bv5 32)))))
(assert (not (not (= symbol_132 (_ bv5 32)))))
(assert (not (not (= symbol_131 (_ bv5 32)))))
(assert (not (not (= symbol_129 (_ bv5 32)))))
(assert (not (not (= symbol_127 (_ bv5 32)))))
(assert (not (not (= symbol_125 (_ bv5 32)))))
(assert (not (not (= symbol_124 (_ bv5 32)))))
(assert (not (not (= symbol_122 (_ bv5 32)))))
(assert (not (not (= symbol_120 (_ bv5 32)))))
(assert (not (not (= symbol_118 (_ bv5 32)))))
(assert (not (not (= symbol_116 (_ bv5 32)))))
(assert (not (not (= symbol_114 (_ bv5 32)))))
(assert (not (not (= symbol_113 (_ bv5 32)))))
(assert (not (not (= symbol_111 (_ bv5 32)))))
(assert (not (not (= symbol_109 (_ bv5 32)))))
(assert (not (not (= symbol_107 (_ bv5 32)))))
(assert (not (not (= symbol_105 (_ bv5 32)))))
(assert (not (not (= symbol_104 (_ bv5 32)))))
(assert (not (not (= symbol_102 (_ bv5 32)))))
(assert (not (not (= symbol_100 (_ bv5 32)))))
(assert (not (not (= symbol_98 (_ bv5 32)))))
(assert (not (not (= symbol_96 (_ bv5 32)))))
(assert (not (not (= symbol_95 (_ bv5 32)))))
(assert (not (not (= symbol_93 (_ bv5 32)))))
(assert (not (not (= symbol_91 (_ bv5 32)))))
(assert (not (not (= symbol_89 (_ bv5 32)))))
(assert (not (not (= symbol_87 (_ bv5 32)))))
(assert (not (not (= symbol_85 (_ bv5 32)))))
(assert (not (not (= symbol_83 (_ bv5 32)))))
(assert (not (not (= symbol_82 (_ bv5 32)))))
(assert (not (not (= symbol_80 (_ bv5 32)))))
(assert (not (not (= symbol_78 (_ bv5 32)))))
(assert (not (not (= symbol_76 (_ bv5 32)))))
(assert (not (not (= symbol_74 (_ bv5 32)))))
(assert (not (not (= symbol_72 (_ bv5 32)))))
(assert (not (not (= symbol_70 (_ bv5 32)))))
(assert (not (not (= symbol_68 (_ bv5 32)))))
(assert (not (not (= symbol_67 (_ bv5 32)))))
(assert (not (not (= symbol_65 (_ bv5 32)))))
(assert (not (not (= symbol_63 (_ bv5 32)))))
(assert (not (not (= symbol_61 (_ bv5 32)))))
(assert (not (not (= symbol_59 (_ bv5 32)))))
(assert (not (not (= symbol_57 (_ bv5 32)))))
(assert (not (not (= symbol_55 (_ bv5 32)))))
(assert (not (not (= symbol_54 (_ bv5 32)))))
(assert (not (not (= symbol_52 (_ bv5 32)))))
(assert (not (not (= symbol_51 (_ bv5 32)))))
(assert (not (not (= symbol_49 (_ bv5 32)))))
(assert (not (not (= symbol_47 (_ bv5 32)))))
(assert (not (not (= symbol_45 (_ bv5 32)))))
(assert (not (not (= symbol_43 (_ bv5 32)))))
(assert (not (not (= symbol_41 (_ bv5 32)))))
(assert (not (not (= symbol_39 (_ bv5 32)))))
(assert (not (not (= symbol_37 (_ bv5 32)))))
(assert (not (not (= symbol_36 (_ bv5 32)))))
(assert (not (not (= symbol_34 (_ bv5 32)))))
(assert (not (not (= symbol_32 (_ bv5 32)))))
(assert (not (not (= symbol_30 (_ bv5 32)))))
(assert (not (not (= symbol_28 (_ bv5 32)))))
(assert (not (not (= symbol_26 (_ bv5 32)))))
(assert (not (not (= symbol_24 (_ bv5 32)))))
(assert (not (not (= symbol_22 (_ bv5 32)))))
(assert (not (not (= symbol_20 (_ bv5 32)))))
(assert (not (not (= symbol_19 (_ bv5 32)))))
(assert (not (not (= symbol_17 (_ bv5 32)))))
(assert (not (not (= symbol_16 (_ bv5 32)))))
(assert (not (not (= symbol_14 (_ bv5 32)))))
(assert (not (not (= symbol_12 (_ bv5 32)))))
(assert (not (not (= symbol_10 (_ bv5 32)))))
(assert (not (not (= symbol_9 (_ bv5 32)))))
(assert (not (not (= symbol_7 (_ bv5 32)))))
(assert (not (not (= symbol_5 (_ bv5 32)))))
(assert (not (not (= symbol_4 (_ bv5 32)))))
(assert (not (not (= symbol_2 (_ bv5 32)))))
(assert (not (not (= symbol_0 (_ bv1 32)))))
(assert (not (= symbol_0 (_ bv5 32))))
(check-sat)